Test: fpga13_10_sat.cnf
Options: -no-inverting-opt -sym-usage-var-bump
WARNING: for repeatability, setting FPU to use double precision
============================[ Problem Statistics ]=============================
|                                                                             |
|  Number of symmetries:           28                                         |
|  Number of invertingSyms:         0                                         |
|  Number of variables:           195                                         |
|  Number of clauses:             905                                         |
|  Parse time:                   0.00 s                                       |
|                                                                             |
============================[ Search Statistics ]==============================
| Conflicts |          ORIGINAL         |          LEARNT          | Progress |
|           |    Vars  Clauses Literals |    Limit  Clauses Lit/Cl |          |
===============================================================================
|       100 |     195      905     2440 |      331      237     51 |  0.003 % |
===============================================================================
restarts              : 2
conflicts             : 125            (inf /sec)
symconflicts          : 28             (inf /sec)
decisions             : 337            (0.00 % random) (inf /sec)
propagations          : 2687           (inf /sec)
sympropagations       : 159            (inf /sec)
conflict literals     : 5804           (1.17 % deleted)
literals     : 5804           (1.17 % deleted)

HEURISTIC USAGES
random                : 0           
activity w/ lookahead : 0           
activity no lookahead : 0           
original sp           : 336         
sym count             : 0           

Memory used           : 5.00 MB
CPU time              : 0 s

SATISFIABLE
